NAME 
ROWS
 N  OBJ
 L  R0      
 L  R1      
 L  R2      
 E  R3      
 E  R4      
 E  R5      
 E  R6      
 E  R7      
 E  R8      
 E  R9      
 E  R10     
 E  R11     
 E  R12     
 E  R13     
 E  R14     
 E  R15     
 E  R16     
 E  R17     
COLUMNS
    MARKER    'MARKER'                 'INTORG'
    I0(9)     OBJ       -113
    I0(9)     R0        37
    I0(9)     R1        -115
    I0(9)     R2        -3
    I0(9)     R3        19
    I0(9)     R5        7
    I0(9)     R6        16
    I0(9)     R7        1
    I0(9)     R10       16
    I0(9)     R17       1
    I1(10)    OBJ       163
    I1(10)    R0        69
    I1(10)    R1        -51
    I1(10)    R2        -131
    I1(10)    R3        7
    I1(10)    R4        19
    I1(10)    R6        13
    I1(10)    R8        5
    I1(10)    R9        13
    I1(10)    R10       18
    I1(10)    R17       1
    I2(8)     OBJ       -62
    I2(8)     R0        -98
    I2(8)     R1        -71
    I2(8)     R2        100
    I2(8)     R4        9
    I2(8)     R6        18
    I2(8)     R9        -1
    I2(8)     R11       2
    I2(8)     R17       1
    I3(11)    OBJ       37
    I3(11)    R0        11
    I3(11)    R1        164
    I3(11)    R2        -112
    I3(11)    R3        17
    I3(11)    R4        11
    I3(11)    R7        6
    I3(11)    R8        11
    I3(11)    R9        19
    I3(11)    R10       9
    I3(11)    R11       9
    I3(11)    R17       1
    I4(10)    OBJ       -84
    I4(10)    R0        59
    I4(10)    R1        -20
    I4(10)    R2        108
    I4(10)    R3        7
    I4(10)    R4        16
    I4(10)    R6        -1
    I4(10)    R9        10
    I4(10)    R10       -1
    I4(10)    R11       4
    I4(10)    R17       1
    I5(9)     OBJ       -142
    I5(9)     R0        -191
    I5(9)     R1        -76
    I5(9)     R2        -126
    I5(9)     R3        19
    I5(9)     R7        11
    I5(9)     R8        14
    I5(9)     R9        7
    I5(9)     R10       18
    I5(9)     R17       1
    I6(7)     OBJ       -144
    I6(7)     R0        -34
    I6(7)     R1        -90
    I6(7)     R2        134
    I6(7)     R4        10
    I6(7)     R6        2
    I6(7)     R8        -1
    I6(7)     R17       1
    I7(12)    OBJ       -175
    I7(12)    R0        -150
    I7(12)    R1        5
    I7(12)    R2        120
    I7(12)    R3        10
    I7(12)    R4        6
    I7(12)    R5        18
    I7(12)    R7        19
    I7(12)    R8        17
    I7(12)    R9        6
    I7(12)    R10       18
    I7(12)    R11       4
    I7(12)    R17       1
    I8(10)    OBJ       -175
    I8(10)    R0        -198
    I8(10)    R1        -12
    I8(10)    R2        -15
    I8(10)    R5        2
    I8(10)    R6        9
    I8(10)    R7        6
    I8(10)    R9        13
    I8(10)    R10       9
    I8(10)    R11       14
    I8(10)    R17       1
    MARKER    'MARKER'                 'INTEND'
    C9(13)    OBJ       3
    C9(13)    R0        2
    C9(13)    R1        9
    C9(13)    R2        6
    C9(13)    R3        10
    C9(13)    R4        3
    C9(13)    R5        8
    C9(13)    R8        10
    C9(13)    R10       9
    C9(13)    R11       11
    C9(13)    R12       19
    C9(13)    R13       3
    C9(13)    R14       7
    C9(13)    R15       11
    C10(11)   OBJ       7
    C10(11)   R0        3
    C10(11)   R1        3
    C10(11)   R2        -1
    C10(11)   R3        3
    C10(11)   R4        9
    C10(11)   R7        3
    C10(11)   R9        14
    C10(11)   R10       6
    C10(11)   R11       18
    C10(11)   R13       -1
    C10(11)   R16       14
    C11(11)   OBJ       3
    C11(11)   R0        -4
    C11(11)   R1        7
    C11(11)   R2        -8
    C11(11)   R3        5
    C11(11)   R4        11
    C11(11)   R7        15
    C11(11)   R8        15
    C11(11)   R9        5
    C11(11)   R11       3
    C11(11)   R13       18
    C11(11)   R14       -1
    C12(15)   OBJ       -9
    C12(15)   R0        -9
    C12(15)   R1        -8
    C12(15)   R2        -3
    C12(15)   R4        18
    C12(15)   R5        11
    C12(15)   R6        15
    C12(15)   R7        -1
    C12(15)   R8        4
    C12(15)   R9        5
    C12(15)   R10       3
    C12(15)   R11       17
    C12(15)   R12       2
    C12(15)   R14       11
    C12(15)   R15       5
    C12(15)   R16       10
    C13(10)   OBJ       7
    C13(10)   R0        8
    C13(10)   R1        -8
    C13(10)   R2        6
    C13(10)   R3        19
    C13(10)   R5        12
    C13(10)   R7        3
    C13(10)   R11       7
    C13(10)   R12       15
    C13(10)   R13       8
    C13(10)   R15       1
    C14(11)   R0        1
    C14(11)   R1        2
    C14(11)   R2        9
    C14(11)   R4        13
    C14(11)   R5        7
    C14(11)   R7        4
    C14(11)   R9        -1
    C14(11)   R12       18
    C14(11)   R13       17
    C14(11)   R15       12
    C14(11)   R16       -1
    C15(1)    R3        1
    C16(1)    R4        1
    C17(1)    R5        1
    C18(1)    R6        1
    C19(1)    R7        1
    C20(1)    R8        1
    C21(1)    R9        1
    C22(1)    R10       1
    C23(1)    R11       1
    C24(1)    R12       1
    C25(1)    R13       1
    C26(1)    R14       1
    C27(1)    R15       1
    C28(1)    R16       1
    C29(1)    R17       1
RHS
    RHS1      R0        -406.6
    RHS1      R1        -1.1886666666666667e+02
    RHS1      R2        230.8
    RHS1      R3        98
    RHS1      R4        69
    RHS1      R5        78
    RHS1      R6        52
    RHS1      R7        67
    RHS1      R8        85
    RHS1      R9        90
    RHS1      R10       63
    RHS1      R11       72
    RHS1      R12       75
    RHS1      R13       80
    RHS1      R14       64
    RHS1      R15       88
    RHS1      R16       99
    RHS1      R17       3
BOUNDS
 UP BND1      I0(9)     1
 UP BND1      I1(10)    1
 UP BND1      I2(8)     1
 UP BND1      I3(11)    1
 UP BND1      I4(10)    1
 UP BND1      I5(9)     1
 UP BND1      I6(7)     1
 UP BND1      I7(12)    1
 UP BND1      I8(10)    1
ENDATA
